p edge 108 576
e 1 7
e 1 12
e 1 39
e 1 40
e 1 42
e 1 67
e 1 76
e 1 80
e 1 96
e 2 9
e 2 42
e 2 46
e 2 57
e 2 60
e 2 64
e 2 69
e 2 75
e 2 84
e 2 107
e 3 6
e 3 8
e 3 12
e 3 61
e 3 62
e 3 68
e 3 78
e 3 81
e 4 21
e 4 25
e 4 38
e 4 50
e 4 56
e 4 78
e 4 98
e 4 105
e 4 108
e 5 15
e 5 31
e 5 32
e 5 34
e 5 35
e 5 50
e 5 58
e 5 85
e 5 93
e 5 106
e 6 7
e 6 22
e 6 30
e 6 32
e 6 54
e 6 72
e 6 84
e 6 85
e 6 97
e 7 10
e 7 16
e 7 21
e 7 45
e 7 60
e 7 66
e 7 73
e 7 74
e 7 79
e 7 81
e 7 84
e 8 22
e 8 72
e 8 75
e 8 76
e 8 77
e 8 85
e 9 12
e 9 20
e 9 21
e 9 27
e 9 29
e 9 34
e 9 51
e 9 56
e 9 68
e 9 96
e 9 100
e 9 105
e 10 22
e 10 23
e 10 24
e 10 26
e 10 48
e 10 62
e 10 74
e 10 78
e 10 97
e 11 13
e 11 41
e 11 49
e 11 52
e 11 53
e 11 62
e 11 66
e 11 85
e 11 94
e 11 95
e 11 105
e 12 17
e 12 24
e 12 25
e 12 35
e 12 66
e 12 78
e 12 82
e 12 83
e 12 92
e 12 102
e 13 29
e 13 37
e 13 39
e 13 41
e 13 43
e 13 51
e 13 53
e 13 73
e 13 75
e 13 96
e 13 98
e 14 26
e 14 32
e 14 57
e 14 62
e 14 63
e 14 64
e 14 76
e 14 78
e 14 94
e 14 96
e 14 97
e 14 104
e 15 16
e 15 24
e 15 25
e 15 62
e 15 70
e 15 85
e 15 90
e 16 32
e 16 42
e 16 46
e 16 57
e 16 63
e 16 64
e 16 79
e 16 83
e 16 84
e 16 98
e 16 104
e 16 108
e 17 35
e 17 49
e 17 59
e 17 63
e 17 64
e 17 74
e 17 77
e 17 83
e 17 93
e 17 95
e 18 29
e 18 43
e 18 49
e 18 50
e 18 59
e 18 71
e 18 95
e 18 97
e 18 101
e 18 102
e 18 104
e 18 106
e 19 33
e 19 42
e 19 45
e 19 54
e 19 63
e 19 77
e 19 78
e 19 85
e 19 92
e 19 94
e 19 95
e 19 97
e 19 106
e 19 108
e 20 32
e 20 47
e 20 71
e 20 83
e 20 89
e 20 90
e 20 104
e 20 105
e 21 32
e 21 48
e 21 69
e 21 86
e 21 90
e 21 92
e 21 103
e 22 33
e 22 37
e 22 44
e 22 51
e 22 77
e 22 108
e 23 32
e 23 33
e 23 36
e 23 40
e 23 43
e 23 44
e 23 45
e 23 48
e 23 51
e 23 53
e 23 54
e 23 64
e 23 66
e 23 74
e 23 79
e 23 96
e 23 106
e 24 42
e 24 48
e 24 49
e 24 56
e 24 61
e 24 80
e 24 91
e 24 92
e 25 26
e 25 31
e 25 36
e 25 45
e 25 52
e 25 60
e 25 71
e 25 73
e 25 81
e 25 82
e 25 97
e 25 106
e 25 108
e 26 37
e 26 54
e 26 56
e 26 97
e 26 102
e 27 57
e 27 60
e 27 74
e 28 36
e 28 39
e 28 47
e 28 56
e 28 57
e 28 61
e 28 80
e 28 84
e 28 96
e 29 40
e 29 49
e 29 56
e 29 60
e 29 68
e 29 74
e 29 84
e 29 101
e 30 49
e 30 50
e 30 56
e 30 63
e 30 69
e 30 84
e 30 99
e 31 34
e 31 46
e 31 50
e 31 55
e 31 57
e 31 60
e 31 66
e 31 76
e 31 79
e 31 81
e 31 85
e 31 87
e 31 108
e 32 36
e 32 48
e 32 50
e 32 59
e 32 81
e 32 83
e 33 38
e 33 54
e 33 65
e 33 74
e 33 89
e 33 94
e 33 96
e 33 105
e 34 46
e 34 50
e 34 52
e 34 61
e 34 92
e 35 37
e 35 50
e 35 51
e 35 59
e 35 75
e 35 76
e 35 78
e 35 81
e 35 90
e 35 94
e 35 96
e 35 99
e 35 107
e 35 108
e 36 73
e 36 80
e 36 88
e 36 96
e 36 108
e 37 38
e 37 39
e 37 40
e 37 59
e 37 78
e 37 88
e 37 94
e 37 106
e 38 39
e 38 48
e 38 49
e 38 56
e 38 72
e 38 75
e 38 86
e 38 89
e 38 106
e 39 46
e 39 60
e 40 44
e 40 46
e 40 57
e 40 66
e 40 70
e 40 91
e 40 102
e 40 106
e 40 108
e 41 46
e 41 64
e 41 71
e 41 95
e 41 97
e 42 63
e 42 66
e 42 70
e 42 91
e 42 100
e 42 104
e 43 49
e 43 60
e 43 74
e 43 77
e 43 87
e 43 91
e 44 51
e 44 52
e 44 56
e 44 60
e 44 84
e 44 88
e 44 102
e 44 107
e 45 57
e 45 67
e 45 70
e 45 72
e 45 79
e 45 100
e 45 101
e 45 104
e 45 107
e 45 108
e 46 51
e 46 62
e 46 64
e 46 75
e 46 96
e 47 99
e 47 102
e 47 106
e 48 56
e 48 61
e 48 66
e 48 82
e 48 93
e 48 96
e 49 53
e 49 56
e 49 57
e 49 88
e 50 66
e 50 69
e 50 72
e 50 79
e 50 90
e 50 95
e 50 98
e 50 102
e 50 106
e 51 55
e 51 58
e 51 106
e 52 88
e 53 61
e 53 63
e 53 75
e 53 89
e 54 56
e 54 101
e 54 106
e 55 80
e 55 91
e 55 96
e 55 98
e 55 106
e 56 78
e 56 85
e 56 91
e 56 107
e 57 64
e 57 98
e 57 104
e 58 67
e 58 99
e 58 107
e 59 67
e 59 68
e 59 95
e 60 61
e 60 84
e 60 86
e 60 94
e 61 76
e 61 81
e 61 82
e 61 84
e 61 87
e 61 88
e 61 107
e 61 108
e 62 64
e 62 67
e 62 68
e 62 72
e 62 79
e 62 80
e 62 84
e 62 97
e 62 98
e 62 104
e 63 69
e 63 70
e 63 74
e 63 88
e 64 85
e 65 78
e 65 86
e 65 100
e 65 106
e 65 107
e 66 71
e 66 73
e 66 76
e 66 79
e 66 82
e 66 91
e 66 94
e 67 83
e 67 88
e 67 89
e 67 94
e 67 100
e 67 102
e 68 76
e 68 80
e 68 81
e 68 91
e 68 95
e 69 86
e 69 107
e 70 86
e 71 73
e 71 80
e 71 96
e 71 97
e 71 105
e 72 106
e 73 75
e 73 76
e 73 83
e 73 85
e 73 95
e 74 81
e 74 87
e 74 95
e 74 105
e 75 83
e 75 87
e 75 90
e 75 101
e 75 107
e 75 108
e 76 85
e 77 78
e 77 102
e 78 83
e 78 101
e 78 104
e 79 87
e 79 90
e 79 104
e 80 85
e 80 88
e 80 91
e 80 93
e 80 96
e 80 104
e 80 107
e 81 107
e 82 90
e 82 98
e 82 100
e 83 85
e 83 105
e 84 90
e 84 91
e 84 93
e 84 104
e 84 105
e 84 108
e 85 87
e 85 91
e 87 107
e 88 95
e 88 103
e 89 92
e 89 93
e 89 98
e 89 108
e 90 95
e 90 105
e 93 94
e 96 99
e 98 104
e 101 104
e 102 106
e 102 107
e 103 106
e 103 108
e 104 106
e 107 108
